NAME : A-n44-k6
COMMENT : (Augerat et al, Min no of trucks: 6, Optimal value: 937)
TYPE : CVRP
DIMENSION : 44
EDGE_WEIGHT_TYPE : EUC_2D 
CAPACITY : 100
NODE_COORD_SECTION 
 1 14 68
 2 73 2
 3 13 47
 4 37 44
 5 34 63
 6 58 98
 7 33 42
 8 18 98
 9 24 79
 10 17 28
 11 72 67
 12 78 63
 13 42 48
 14 1 2
 15 2 28
 16 32 82
 17 97 38
 18 39 53
 19 87 1
 20 42 77
 21 83 27
 22 79 92
 23 22 39
 24 58 32
 25 53 84
 26 38 37
 27 63 59
 28 42 88
 29 32 88
 30 38 23
 31 63 32
 32 22 73
 33 88 94
 34 58 78
 35 43 62
 36 73 1
 37 17 32
 38 87 79
 39 12 24
 40 48 53
 41 48 23
 42 7 37
 43 98 77
 44 34 12
DEMAND_SECTION 
1 0 
2 8 
3 24 
4 9 
5 19 
6 9 
7 18 
8 9 
9 14 
10 3 
11 14 
12 8 
13 8 
14 13 
15 18 
16 4 
17 24 
18 14 
19 8 
20 18 
21 13 
22 2 
23 9 
24 18 
25 3 
26 24 
27 8 
28 24 
29 14 
30 13 
31 24 
32 23 
33 9 
34 13 
35 14 
36 14 
37 18 
38 24 
39 4 
40 8 
41 13 
42 4 
43 14 
44 18 
DEPOT_SECTION 
 1  
 -1  
EOF 
